NAME          
ROWS
 N  OBJ
 L  c1
 L  c2
 L  c3
COLUMNS
    MARKER    'MARKER'                 'INTORG'
    x[1]      c1        364
    x[1]      c2        136
    x[1]      c3        821
    x[1]      OBJ       -177
    x[2]      c1        924
    x[2]      c2        860
    x[2]      c3        706
    x[2]      OBJ       -133
    x[3]      c1        616
    x[3]      c2        279
    x[3]      c3        421
    x[3]      OBJ       -610
    x[4]      c1        946
    x[4]      c2        269
    x[4]      c3        21
    x[4]      OBJ       -260
    x[5]      c1        492
    x[5]      c2        873
    x[5]      c3        353
    x[5]      OBJ       -827
    x[6]      c1        400
    x[6]      c2        342
    x[6]      c3        132
    x[6]      OBJ       -772
    x[7]      c1        527
    x[7]      c2        84
    x[7]      c3        132
    x[7]      OBJ       -962
    x[8]      c1        318
    x[8]      c2        160
    x[8]      c3        367
    x[8]      OBJ       -327
    x[9]      c1        973
    x[9]      c2        394
    x[9]      c3        535
    x[9]      OBJ       -262
    x[10]     c1        487
    x[10]     c2        416
    x[10]     c3        923
    x[10]     OBJ       -92
RHS
    rhs       c1        3024
    rhs       c2        1906
    rhs       c3        2206
RANGES
BOUNDS
 LO bounds    x[1]      0
 PL bounds    x[1]
 LO bounds    x[2]      0
 PL bounds    x[2]
 LO bounds    x[3]      0
 PL bounds    x[3]
 LO bounds    x[4]      0
 PL bounds    x[4]
 LO bounds    x[5]      0
 PL bounds    x[5]
 LO bounds    x[6]      0
 PL bounds    x[6]
 LO bounds    x[7]      0
 PL bounds    x[7]
 LO bounds    x[8]      0
 PL bounds    x[8]
 LO bounds    x[9]      0
 PL bounds    x[9]
 LO bounds    x[10]     0
 PL bounds    x[10]
ENDATA
